p edge 150 1118
e 1 9
e 1 14
e 1 27
e 1 43
e 1 51
e 1 55
e 1 59
e 1 63
e 1 95
e 1 99
e 1 104
e 1 118
e 1 138
e 2 3
e 2 6
e 2 8
e 2 11
e 2 33
e 2 39
e 2 52
e 2 78
e 2 81
e 2 99
e 2 110
e 2 131
e 2 134
e 2 148
e 3 12
e 3 21
e 3 25
e 3 29
e 3 45
e 3 46
e 3 57
e 3 63
e 3 66
e 3 101
e 3 118
e 3 127
e 3 136
e 3 139
e 3 148
e 4 13
e 4 27
e 4 32
e 4 44
e 4 49
e 4 54
e 4 59
e 4 70
e 4 74
e 4 85
e 4 92
e 4 98
e 4 103
e 4 104
e 4 106
e 4 107
e 4 108
e 4 140
e 4 143
e 4 147
e 4 149
e 5 10
e 5 16
e 5 37
e 5 50
e 5 52
e 5 60
e 5 63
e 5 92
e 5 96
e 5 106
e 5 126
e 5 137
e 5 139
e 5 148
e 6 24
e 6 32
e 6 34
e 6 46
e 6 64
e 6 65
e 6 71
e 6 83
e 6 90
e 6 94
e 6 98
e 6 114
e 6 135
e 6 136
e 7 13
e 7 30
e 7 50
e 7 57
e 7 64
e 7 81
e 7 94
e 7 120
e 7 134
e 7 141
e 8 21
e 8 31
e 8 37
e 8 43
e 8 55
e 8 79
e 8 89
e 8 99
e 8 108
e 8 126
e 8 133
e 8 139
e 9 23
e 9 33
e 9 47
e 9 61
e 9 75
e 9 96
e 9 98
e 9 101
e 9 103
e 9 105
e 9 118
e 9 122
e 9 136
e 10 13
e 10 28
e 10 37
e 10 50
e 10 69
e 10 76
e 10 94
e 10 104
e 10 132
e 10 134
e 10 143
e 11 16
e 11 27
e 11 40
e 11 43
e 11 44
e 11 58
e 11 84
e 11 101
e 11 105
e 11 106
e 11 112
e 11 113
e 11 129
e 12 21
e 12 24
e 12 30
e 12 33
e 12 35
e 12 44
e 12 59
e 12 60
e 12 63
e 12 68
e 12 92
e 12 99
e 12 104
e 12 111
e 12 118
e 12 120
e 12 129
e 13 15
e 13 21
e 13 39
e 13 61
e 13 66
e 13 71
e 13 86
e 13 95
e 13 113
e 13 114
e 13 125
e 13 135
e 13 136
e 13 143
e 13 145
e 13 149
e 14 33
e 14 43
e 14 46
e 14 53
e 14 56
e 14 60
e 14 63
e 14 64
e 14 67
e 14 73
e 14 103
e 14 109
e 14 113
e 14 117
e 14 118
e 14 120
e 14 129
e 14 133
e 15 21
e 15 23
e 15 29
e 15 30
e 15 36
e 15 47
e 15 63
e 15 68
e 15 90
e 15 93
e 15 95
e 15 112
e 15 115
e 15 130
e 15 131
e 15 134
e 15 138
e 15 147
e 16 37
e 16 51
e 16 53
e 16 57
e 16 96
e 16 110
e 16 115
e 16 139
e 17 36
e 17 41
e 17 53
e 17 72
e 17 93
e 17 94
e 17 95
e 17 102
e 17 108
e 17 145
e 17 149
e 18 32
e 18 44
e 18 56
e 18 68
e 18 71
e 18 74
e 18 84
e 18 87
e 18 95
e 18 113
e 18 122
e 18 136
e 18 140
e 18 144
e 19 30
e 19 40
e 19 51
e 19 80
e 19 89
e 19 92
e 19 100
e 19 123
e 19 129
e 20 36
e 20 44
e 20 52
e 20 66
e 20 93
e 20 94
e 20 97
e 20 116
e 20 118
e 20 123
e 20 133
e 20 142
e 21 40
e 21 50
e 21 56
e 21 64
e 21 93
e 21 107
e 21 109
e 21 115
e 21 125
e 21 148
e 22 40
e 22 45
e 22 48
e 22 62
e 22 64
e 22 71
e 22 73
e 22 84
e 22 86
e 22 123
e 22 125
e 23 29
e 23 61
e 23 79
e 23 88
e 23 96
e 23 110
e 23 114
e 23 131
e 24 76
e 24 85
e 24 93
e 24 100
e 24 108
e 24 115
e 24 116
e 24 119
e 24 141
e 25 34
e 25 43
e 25 46
e 25 56
e 25 65
e 25 69
e 25 70
e 25 78
e 25 95
e 25 110
e 25 114
e 25 115
e 26 27
e 26 42
e 26 47
e 26 50
e 26 59
e 26 66
e 26 81
e 26 88
e 26 89
e 26 95
e 26 110
e 26 119
e 26 121
e 26 125
e 26 140
e 26 149
e 27 32
e 27 34
e 27 64
e 27 77
e 27 96
e 27 120
e 27 136
e 27 141
e 27 146
e 27 147
e 28 36
e 28 56
e 28 85
e 28 90
e 28 99
e 28 103
e 28 107
e 28 114
e 28 135
e 28 140
e 28 149
e 29 44
e 29 51
e 29 62
e 29 108
e 29 130
e 29 140
e 30 58
e 30 63
e 30 69
e 30 70
e 30 86
e 30 88
e 30 98
e 30 101
e 30 106
e 30 114
e 30 131
e 30 144
e 31 33
e 31 40
e 31 41
e 31 43
e 31 49
e 31 52
e 31 56
e 31 87
e 31 93
e 31 96
e 31 100
e 31 106
e 31 117
e 31 126
e 31 132
e 32 45
e 32 47
e 32 66
e 32 69
e 32 74
e 32 77
e 32 81
e 32 87
e 32 139
e 32 140
e 33 41
e 33 42
e 33 53
e 33 111
e 33 115
e 33 117
e 33 129
e 33 133
e 33 141
e 33 143
e 33 145
e 33 147
e 33 149
e 34 35
e 34 40
e 34 45
e 34 67
e 34 73
e 34 78
e 34 83
e 34 105
e 34 117
e 34 144
e 34 148
e 35 63
e 35 64
e 35 71
e 35 81
e 35 110
e 36 62
e 36 66
e 36 80
e 36 91
e 36 125
e 36 144
e 37 43
e 37 47
e 37 52
e 37 53
e 37 65
e 37 68
e 37 73
e 37 81
e 37 83
e 37 93
e 37 105
e 37 123
e 37 129
e 37 137
e 37 144
e 37 146
e 37 149
e 38 44
e 38 48
e 38 57
e 38 74
e 38 78
e 38 93
e 38 110
e 38 120
e 38 121
e 38 124
e 38 125
e 38 126
e 39 40
e 39 42
e 39 47
e 39 49
e 39 52
e 39 65
e 39 66
e 39 78
e 39 117
e 39 123
e 39 129
e 39 139
e 39 142
e 40 52
e 40 55
e 40 78
e 40 87
e 40 89
e 40 92
e 40 111
e 40 116
e 40 119
e 40 124
e 40 139
e 41 62
e 41 75
e 41 116
e 41 130
e 41 146
e 42 46
e 42 50
e 42 59
e 42 61
e 42 68
e 42 72
e 42 73
e 42 75
e 42 76
e 42 83
e 42 112
e 43 63
e 43 66
e 43 85
e 43 93
e 43 95
e 43 98
e 43 116
e 43 131
e 43 134
e 43 136
e 43 145
e 44 49
e 44 53
e 44 60
e 44 68
e 44 71
e 44 77
e 44 83
e 44 101
e 44 128
e 44 142
e 45 48
e 45 58
e 45 64
e 45 70
e 45 80
e 45 95
e 45 111
e 45 135
e 46 63
e 46 71
e 46 74
e 46 75
e 46 85
e 46 86
e 46 95
e 46 110
e 46 139
e 46 141
e 47 48
e 47 55
e 47 69
e 47 80
e 47 82
e 47 86
e 47 90
e 47 92
e 47 93
e 47 95
e 47 133
e 47 136
e 48 74
e 48 82
e 48 83
e 48 90
e 48 91
e 48 122
e 48 124
e 48 125
e 48 130
e 48 149
e 49 52
e 49 53
e 49 57
e 49 70
e 49 78
e 49 104
e 49 113
e 49 118
e 49 135
e 50 56
e 50 64
e 50 88
e 50 98
e 50 134
e 50 148
e 51 52
e 51 57
e 51 58
e 51 59
e 51 80
e 51 88
e 51 95
e 51 107
e 51 108
e 51 119
e 51 121
e 51 128
e 51 130
e 51 143
e 51 148
e 52 57
e 52 64
e 52 72
e 52 75
e 52 84
e 52 87
e 52 88
e 52 97
e 52 105
e 52 124
e 52 130
e 52 133
e 52 141
e 52 147
e 53 58
e 53 61
e 53 62
e 53 89
e 53 94
e 53 130
e 53 133
e 54 70
e 54 81
e 54 108
e 54 109
e 54 117
e 54 121
e 54 126
e 54 127
e 54 134
e 54 148
e 54 149
e 55 64
e 55 73
e 55 77
e 55 78
e 55 97
e 55 110
e 55 122
e 55 125
e 55 135
e 55 139
e 55 140
e 55 145
e 56 58
e 56 61
e 56 65
e 56 79
e 56 89
e 56 93
e 56 95
e 56 122
e 56 133
e 56 139
e 56 149
e 56 150
e 57 64
e 57 70
e 57 77
e 57 87
e 57 94
e 57 96
e 57 98
e 57 99
e 57 105
e 57 106
e 57 113
e 57 127
e 57 133
e 57 144
e 58 63
e 58 66
e 58 81
e 58 88
e 58 89
e 58 108
e 58 122
e 58 146
e 58 148
e 59 61
e 59 68
e 59 76
e 59 95
e 59 118
e 59 121
e 59 129
e 60 64
e 60 70
e 60 77
e 60 80
e 60 85
e 60 96
e 60 107
e 60 116
e 60 128
e 60 137
e 61 66
e 61 72
e 61 87
e 61 100
e 61 102
e 61 107
e 61 112
e 61 115
e 61 125
e 61 134
e 61 142
e 62 63
e 62 113
e 62 115
e 62 118
e 62 128
e 62 133
e 62 135
e 62 137
e 62 149
e 63 73
e 63 94
e 63 108
e 63 114
e 63 115
e 63 116
e 63 132
e 63 137
e 63 140
e 63 147
e 63 148
e 63 150
e 64 78
e 64 85
e 64 104
e 64 123
e 64 133
e 64 134
e 64 136
e 64 137
e 64 143
e 64 148
e 65 75
e 65 80
e 65 84
e 65 88
e 65 92
e 65 113
e 65 146
e 66 79
e 66 107
e 66 111
e 66 134
e 66 138
e 67 73
e 67 81
e 67 90
e 67 92
e 67 113
e 67 115
e 67 119
e 67 122
e 67 133
e 67 134
e 67 135
e 68 69
e 68 78
e 68 83
e 68 86
e 68 103
e 68 105
e 68 123
e 68 125
e 68 140
e 69 74
e 69 82
e 69 84
e 69 87
e 69 101
e 69 106
e 69 109
e 69 126
e 69 134
e 69 137
e 69 144
e 69 145
e 69 147
e 69 148
e 70 73
e 70 82
e 70 90
e 70 115
e 70 137
e 70 138
e 70 139
e 70 148
e 71 90
e 71 94
e 71 95
e 71 101
e 71 103
e 71 104
e 71 107
e 71 113
e 71 115
e 71 141
e 72 86
e 72 88
e 72 117
e 72 135
e 73 74
e 73 81
e 73 86
e 73 88
e 73 99
e 73 107
e 73 125
e 73 130
e 73 134
e 73 137
e 73 141
e 73 145
e 74 76
e 74 77
e 74 79
e 74 90
e 74 92
e 74 95
e 74 109
e 74 130
e 74 148
e 75 80
e 75 86
e 75 98
e 75 103
e 75 111
e 75 119
e 75 124
e 75 137
e 76 116
e 76 122
e 76 124
e 76 130
e 76 132
e 76 140
e 76 143
e 76 148
e 77 81
e 77 115
e 77 123
e 77 130
e 77 137
e 77 146
e 78 83
e 78 96
e 78 100
e 78 116
e 78 143
e 79 88
e 79 97
e 79 100
e 79 103
e 79 104
e 79 106
e 79 108
e 79 110
e 79 112
e 79 118
e 79 127
e 79 135
e 79 139
e 80 91
e 80 94
e 80 95
e 80 102
e 80 119
e 80 122
e 80 136
e 80 138
e 81 85
e 81 86
e 81 90
e 81 92
e 81 114
e 81 115
e 81 135
e 82 83
e 82 91
e 82 93
e 82 122
e 83 91
e 83 118
e 83 121
e 83 131
e 83 134
e 83 136
e 83 143
e 83 147
e 84 93
e 84 98
e 84 99
e 84 103
e 84 104
e 84 130
e 84 133
e 84 134
e 84 146
e 85 108
e 85 120
e 85 128
e 85 129
e 85 134
e 85 146
e 85 147
e 85 148
e 86 87
e 86 91
e 86 111
e 86 121
e 86 139
e 86 148
e 87 91
e 87 93
e 87 100
e 87 103
e 87 126
e 87 146
e 88 96
e 88 147
e 89 90
e 89 96
e 89 99
e 89 105
e 89 136
e 90 93
e 90 110
e 90 119
e 90 124
e 90 137
e 90 140
e 90 148
e 90 150
e 91 99
e 91 100
e 91 110
e 91 119
e 91 126
e 91 130
e 91 139
e 91 149
e 92 101
e 92 120
e 92 121
e 92 130
e 92 138
e 92 139
e 92 146
e 93 96
e 93 98
e 93 146
e 93 148
e 94 97
e 94 106
e 94 107
e 94 118
e 94 126
e 94 129
e 94 142
e 94 147
e 94 149
e 95 124
e 95 130
e 95 131
e 95 134
e 95 137
e 96 125
e 96 142
e 96 143
e 97 109
e 97 114
e 97 134
e 97 147
e 97 148
e 98 112
e 98 115
e 98 142
e 98 146
e 99 119
e 99 120
e 99 135
e 99 137
e 100 102
e 100 108
e 100 110
e 100 120
e 100 138
e 100 139
e 100 143
e 100 149
e 101 113
e 101 121
e 101 122
e 101 131
e 101 138
e 101 141
e 101 150
e 102 106
e 102 120
e 102 126
e 102 130
e 103 108
e 103 110
e 103 118
e 103 120
e 103 121
e 103 127
e 103 130
e 103 134
e 103 141
e 104 106
e 104 108
e 104 120
e 104 126
e 104 135
e 104 144
e 104 147
e 105 112
e 105 135
e 105 137
e 105 142
e 106 111
e 106 128
e 106 129
e 106 137
e 107 120
e 107 125
e 107 130
e 107 134
e 107 140
e 108 120
e 108 128
e 108 131
e 109 116
e 109 119
e 109 129
e 110 117
e 110 127
e 110 133
e 110 135
e 111 127
e 111 132
e 111 144
e 111 149
e 111 150
e 112 127
e 112 141
e 112 146
e 113 115
e 113 119
e 113 128
e 113 132
e 113 137
e 113 148
e 114 147
e 115 121
e 115 125
e 115 131
e 115 143
e 116 122
e 116 129
e 116 133
e 116 140
e 116 143
e 117 118
e 117 119
e 117 141
e 118 131
e 118 149
e 120 126
e 120 127
e 120 138
e 121 147
e 122 126
e 122 139
e 122 147
e 122 148
e 123 124
e 123 126
e 123 135
e 124 133
e 124 144
e 125 132
e 125 141
e 125 144
e 126 127
e 126 144
e 126 147
e 127 132
e 127 138
e 127 140
e 128 130
e 128 147
e 129 135
e 129 143
e 129 149
e 130 133
e 130 135
e 130 137
e 130 145
e 131 132
e 131 136
e 131 140
e 131 148
e 132 142
e 132 145
e 133 139
e 134 142
e 135 148
e 138 139
e 139 142
e 139 143
e 140 147
e 141 150
e 142 150
